\ LP format - for model browsing. Use MPS format to capture full model detail.
Minimize
  - 5 x_0 - x_1 - 4 x_2 - 4 x_3 - 4 x_4 - 2 x_5 - 4 x_6 - 3 x_7 - 5 x_8
   - x_9 - x_10 - 5 x_11 - 3 x_12 - 2 x_13 - x_14 - 2 x_15 - 2 x_16 - x_17
   - 2 x_18 - 5 x_19 - 4 x_20 - x_21 - 4 x_22 - x_23 - 3 x_24 - 4 x_25
   - x_26 - 2 x_27 - 4 x_28 - 4 x_29 - 4 x_30 - x_31 - 2 x_32 - 2 x_33
   - 2 x_34 - x_35 - 3 x_36 - 5 x_37 - 4 x_38 - 4 x_39 - 3 x_40 - 5 x_41
   - 3 x_42 - x_43 - x_44 - 5 x_45 - x_46 - 5 x_47 - 2 x_48 - 5 x_49
   - 2 x_50 - 3 x_51 - 3 x_52 - x_53 - 2 x_54 - 2 x_55 - 2 x_56 - 2 x_57
   - 4 x_58 - 4 x_59 - 3 x_60 - 4 x_61 - x_62 - 4 x_63 - 5 x_64 - 2 x_65
   - 3 x_66 - 5 x_67 - 4 x_68 - 5 x_69 - 5 x_70 - 5 x_71 - 4 x_72 - 5 x_73
   - 5 x_74 - 5 x_75 - x_76 - 5 x_77 - 4 x_78 - 3 x_79 - x_80 - 2 x_81
   - 2 x_82 - 4 x_83 - x_84 - x_85 - 2 x_86 - 3 x_87 - 5 x_88 - 3 x_89
   - x_90 - 4 x_91 - 3 x_92 - 3 x_93 - x_94 - 2 x_95 - x_96 - 3 x_97
   - 3 x_98 - 4 x_99 + [ - 60 x_0 ^2 - 12 x_1 ^2 - 52 x_2 ^2 - 52 x_3 ^2
   - 112 x_4 ^2 - 48 x_5 ^2 - 52 x_6 ^2 - 90 x_7 ^2 - 135 x_8 ^2
   - 28 x_9 ^2 - 24 x_10 ^2 - 95 x_11 ^2 - 33 x_12 ^2 - 28 x_13 ^2
   - 20 x_14 ^2 - 42 x_15 ^2 - 36 x_16 ^2 - 21 x_17 ^2 - 24 x_18 ^2
   - 145 x_19 ^2 - 104 x_20 ^2 - 10 x_21 ^2 - 40 x_22 ^2 - 16 x_23 ^2
   - 87 x_24 ^2 - 96 x_25 ^2 - 20 x_26 ^2 - 58 x_27 ^2 - 72 x_28 ^2
   - 92 x_29 ^2 - 48 x_30 ^2 - 13 x_31 ^2 - 24 x_32 ^2 - 42 x_33 ^2
   - 46 x_34 ^2 - 26 x_35 ^2 - 54 x_36 ^2 - 90 x_37 ^2 - 116 x_38 ^2
   - 72 x_39 ^2 - 36 x_40 ^2 - 150 x_41 ^2 - 39 x_42 ^2 - 22 x_43 ^2
   - 24 x_44 ^2 - 50 x_45 ^2 - 14 x_46 ^2 - 65 x_47 ^2 - 46 x_48 ^2
   - 105 x_49 ^2 - 46 x_50 ^2 - 69 x_51 ^2 - 63 x_52 ^2 - 26 x_53 ^2
   - 48 x_54 ^2 - 52 x_55 ^2 - 58 x_56 ^2 - 22 x_57 ^2 - 72 x_58 ^2
   - 40 x_59 ^2 - 42 x_60 ^2 - 64 x_61 ^2 - 23 x_62 ^2 - 68 x_63 ^2
   - 125 x_64 ^2 - 38 x_65 ^2 - 84 x_66 ^2 - 90 x_67 ^2 - 100 x_68 ^2
   - 105 x_69 ^2 - 80 x_70 ^2 - 125 x_71 ^2 - 44 x_72 ^2 - 110 x_73 ^2
   - 65 x_74 ^2 - 140 x_75 ^2 - 25 x_76 ^2 - 65 x_77 ^2 - 80 x_78 ^2
   - 66 x_79 ^2 - 16 x_80 ^2 - 26 x_81 ^2 - 30 x_82 ^2 - 84 x_83 ^2
   - 10 x_84 ^2 - 21 x_85 ^2 - 36 x_86 ^2 - 90 x_87 ^2 - 100 x_88 ^2
   - 63 x_89 ^2 - 15 x_90 ^2 - 100 x_91 ^2 - 54 x_92 ^2 - 36 x_93 ^2
   - 29 x_94 ^2 - 58 x_95 ^2 - 24 x_96 ^2 - 90 x_97 ^2 - 39 x_98 ^2
   - 52 x_99 ^2 ] / 2 
Subject To
 c1_0: 2 x_0 + 2 x_1 + 2 x_2 + 4 x_3 + 3 x_4 + 3 x_5 + 5 x_6 + 4 x_7
   + 2 x_8 + 3 x_9 + 4 x_10 + 2 x_11 + 5 x_12 + 3 x_13 + 3 x_14 + x_15
   + 2 x_16 + x_17 + 5 x_18 + x_19 + 4 x_20 + 3 x_21 + x_22 + x_23 + 2 x_24
   + 2 x_25 + x_26 + 4 x_27 + x_28 + 4 x_29 + x_30 + 5 x_31 + 5 x_32 + x_33
   + 2 x_34 + 4 x_35 + 5 x_36 + 4 x_37 + 3 x_38 + 2 x_39 + 2 x_40 + 3 x_41
   + 2 x_42 + 5 x_43 + 3 x_44 + 5 x_45 + 5 x_46 + 3 x_47 + 4 x_48 + 4 x_49
   + 2 x_50 + 3 x_51 + 5 x_52 + 4 x_53 + 4 x_54 + 2 x_55 + 2 x_56 + 2 x_57
   + 2 x_58 + 3 x_59 + x_60 + 4 x_61 + 2 x_62 + 5 x_63 + 4 x_64 + 2 x_65
   + 2 x_66 + 3 x_67 + x_68 + x_69 + 3 x_70 + 5 x_71 + x_72 + 5 x_73
   + 4 x_74 + 4 x_75 + x_76 + x_77 + 4 x_78 + 4 x_79 + x_80 + 4 x_81 + x_82
   + 3 x_83 + 2 x_84 + x_85 + 5 x_86 + x_87 + 4 x_88 + 5 x_89 + 5 x_90
   + 2 x_91 + x_92 + 3 x_93 + 5 x_94 + 5 x_95 + 3 x_96 + 5 x_97 + 4 x_98
   + 3 x_99 + [ 13 x_0 ^2 + 26 x_1 ^2 + 13 x_2 ^2 + 30 x_3 ^2 + 16.5 x_4 ^2
   + 19.5 x_5 ^2 + 42.5 x_6 ^2 + 22 x_7 ^2 + 11 x_8 ^2 + 25.5 x_9 ^2
   + 28 x_10 ^2 + 23 x_11 ^2 + 55 x_12 ^2 + 42 x_13 ^2 + 15 x_14 ^2
   + 10.5 x_15 ^2 + 29 x_16 ^2 + 6 x_17 ^2 + 57.5 x_18 ^2 + 7 x_19 ^2
   + 52 x_20 ^2 + 39 x_21 ^2 + 10 x_22 ^2 + 10.5 x_23 ^2 + 13 x_24 ^2
   + 18 x_25 ^2 + 14.5 x_26 ^2 + 48 x_27 ^2 + 5 x_28 ^2 + 60 x_29 ^2
   + 15 x_30 ^2 + 25 x_31 ^2 + 30 x_32 ^2 + 10.5 x_33 ^2 + 15 x_34 ^2
   + 24 x_35 ^2 + 42.5 x_36 ^2 + 44 x_37 ^2 + 31.5 x_38 ^2 + 29 x_39 ^2
   + 11 x_40 ^2 + 39 x_41 ^2 + 28 x_42 ^2 + 70 x_43 ^2 + 36 x_44 ^2
   + 62.5 x_45 ^2 + 62.5 x_46 ^2 + 22.5 x_47 ^2 + 22 x_48 ^2 + 40 x_49 ^2
   + 12 x_50 ^2 + 27 x_51 ^2 + 72.5 x_52 ^2 + 50 x_53 ^2 + 34 x_54 ^2
   + 22 x_55 ^2 + 13 x_56 ^2 + 11 x_57 ^2 + 26 x_58 ^2 + 40.5 x_59 ^2
   + 13 x_60 ^2 + 30 x_61 ^2 + 29 x_62 ^2 + 50 x_63 ^2 + 58 x_64 ^2
   + 27 x_65 ^2 + 23 x_66 ^2 + 15 x_67 ^2 + 5.5 x_68 ^2 + 8 x_69 ^2
   + 28.5 x_70 ^2 + 37.5 x_71 ^2 + 11 x_72 ^2 + 50 x_73 ^2 + 52 x_74 ^2
   + 54 x_75 ^2 + 7 x_76 ^2 + 12 x_77 ^2 + 46 x_78 ^2 + 54 x_79 ^2
   + 8 x_80 ^2 + 40 x_81 ^2 + 7.5 x_82 ^2 + 21 x_83 ^2 + 14 x_84 ^2
   + 15 x_85 ^2 + 70 x_86 ^2 + 14 x_87 ^2 + 40 x_88 ^2 + 52.5 x_89 ^2
   + 60 x_90 ^2 + 29 x_91 ^2 + 13 x_92 ^2 + 16.5 x_93 ^2 + 45 x_94 ^2
   + 42.5 x_95 ^2 + 22.5 x_96 ^2 + 62.5 x_97 ^2 + 38 x_98 ^2 + 45 x_99 ^2 ]
   <= 89
 c1_1: 4 x_0 + x_1 + x_2 + x_3 + 4 x_4 + 5 x_5 + 5 x_6 + 3 x_7 + 3 x_8
   + 5 x_9 + 2 x_10 + 4 x_11 + 4 x_12 + 4 x_13 + 2 x_14 + 3 x_15 + 3 x_16
   + 4 x_17 + 3 x_18 + 4 x_19 + 5 x_20 + 5 x_21 + 3 x_22 + 2 x_23 + 3 x_24
   + x_25 + 4 x_26 + x_27 + 3 x_28 + 5 x_29 + 4 x_30 + 3 x_31 + 2 x_32
   + 3 x_33 + 2 x_34 + 5 x_35 + 2 x_36 + x_37 + x_38 + x_39 + x_40 + x_41
   + 2 x_42 + x_43 + 4 x_44 + 2 x_45 + 5 x_46 + 2 x_47 + 3 x_48 + 5 x_49
   + x_50 + x_51 + 3 x_52 + x_53 + 5 x_54 + 5 x_55 + 5 x_56 + 2 x_57
   + 2 x_58 + 5 x_59 + 2 x_60 + 2 x_61 + 4 x_62 + 2 x_63 + 4 x_64 + 4 x_65
   + 2 x_66 + 2 x_67 + 2 x_68 + x_69 + 4 x_70 + x_71 + 5 x_72 + 2 x_73
   + 5 x_74 + x_75 + 4 x_76 + 3 x_77 + 2 x_78 + 5 x_79 + 5 x_80 + 5 x_81
   + x_82 + x_83 + 3 x_84 + x_85 + 4 x_86 + 4 x_87 + 5 x_88 + 2 x_89
   + 5 x_90 + 4 x_91 + 4 x_92 + 4 x_93 + 5 x_94 + 3 x_95 + 2 x_96 + 3 x_97
   + 3 x_98 + 2 x_99 + [ 20 x_0 ^2 + 12 x_1 ^2 + 6 x_2 ^2 + 14.5 x_3 ^2
   + 28 x_4 ^2 + 25 x_5 ^2 + 75 x_6 ^2 + 22.5 x_7 ^2 + 40.5 x_8 ^2
   + 35 x_9 ^2 + 10 x_10 ^2 + 54 x_11 ^2 + 54 x_12 ^2 + 36 x_13 ^2
   + 19 x_14 ^2 + 21 x_15 ^2 + 28.5 x_16 ^2 + 44 x_17 ^2 + 39 x_18 ^2
   + 26 x_19 ^2 + 25 x_20 ^2 + 60 x_21 ^2 + 15 x_22 ^2 + 21 x_23 ^2
   + 16.5 x_24 ^2 + 14 x_25 ^2 + 48 x_26 ^2 + 11 x_27 ^2 + 27 x_28 ^2
   + 37.5 x_29 ^2 + 24 x_30 ^2 + 40.5 x_31 ^2 + 25 x_32 ^2 + 19.5 x_33 ^2
   + 26 x_34 ^2 + 70 x_35 ^2 + 15 x_36 ^2 + 14 x_37 ^2 + 8.5 x_38 ^2
   + 13.5 x_39 ^2 + 7 x_40 ^2 + 11.5 x_41 ^2 + 29 x_42 ^2 + 12.5 x_43 ^2
   + 58 x_44 ^2 + 24 x_45 ^2 + 70 x_46 ^2 + 10 x_47 ^2 + 21 x_48 ^2
   + 40 x_49 ^2 + 15 x_50 ^2 + 11 x_51 ^2 + 19.5 x_52 ^2 + 14 x_53 ^2
   + 57.5 x_54 ^2 + 72.5 x_55 ^2 + 67.5 x_56 ^2 + 11 x_57 ^2 + 28 x_58 ^2
   + 55 x_59 ^2 + 25 x_60 ^2 + 17 x_61 ^2 + 24 x_62 ^2 + 17 x_63 ^2
   + 46 x_64 ^2 + 52 x_65 ^2 + 11 x_66 ^2 + 26 x_67 ^2 + 23 x_68 ^2
   + 7.5 x_69 ^2 + 56 x_70 ^2 + 13 x_71 ^2 + 55 x_72 ^2 + 14 x_73 ^2
   + 65 x_74 ^2 + 14.5 x_75 ^2 + 48 x_76 ^2 + 27 x_77 ^2 + 24 x_78 ^2
   + 67.5 x_79 ^2 + 50 x_80 ^2 + 60 x_81 ^2 + 8 x_82 ^2 + 11.5 x_83 ^2
   + 21 x_84 ^2 + 12.5 x_85 ^2 + 48 x_86 ^2 + 40 x_87 ^2 + 52.5 x_88 ^2
   + 24 x_89 ^2 + 52.5 x_90 ^2 + 60 x_91 ^2 + 24 x_92 ^2 + 20 x_93 ^2
   + 60 x_94 ^2 + 24 x_95 ^2 + 28 x_96 ^2 + 36 x_97 ^2 + 34.5 x_98 ^2
   + 22 x_99 ^2 ] <= 92
 c1_2: 4 x_0 + 4 x_1 + 5 x_2 + 5 x_3 + 3 x_4 + 2 x_5 + 2 x_6 + x_7 + x_8
   + 3 x_9 + 5 x_10 + 4 x_11 + 4 x_12 + 3 x_13 + 2 x_14 + x_15 + 5 x_16
   + 2 x_17 + 5 x_18 + 5 x_19 + 3 x_20 + x_21 + x_22 + 4 x_23 + 2 x_24
   + 2 x_25 + x_26 + 5 x_27 + 4 x_28 + 4 x_29 + 5 x_30 + 4 x_31 + 5 x_32
   + 4 x_33 + x_34 + 4 x_35 + 4 x_36 + 2 x_37 + 4 x_38 + 5 x_39 + x_40
   + 4 x_41 + x_42 + x_43 + 4 x_44 + 2 x_45 + 3 x_46 + 4 x_47 + 3 x_48
   + 4 x_49 + x_50 + 4 x_51 + 3 x_52 + x_53 + 4 x_54 + 2 x_55 + 5 x_56
   + 4 x_57 + 2 x_58 + 3 x_59 + 2 x_60 + 5 x_61 + 2 x_62 + 4 x_63 + 2 x_64
   + 4 x_65 + 3 x_66 + 5 x_67 + 2 x_68 + 5 x_69 + 2 x_70 + 5 x_71 + 2 x_72
   + 3 x_73 + 3 x_74 + 4 x_75 + 2 x_76 + 3 x_77 + 3 x_78 + 5 x_79 + 3 x_80
   + 3 x_81 + 4 x_82 + x_83 + 5 x_84 + 3 x_85 + x_86 + x_87 + 3 x_88
   + 4 x_89 + 2 x_90 + 4 x_91 + 3 x_92 + 5 x_93 + 2 x_94 + 2 x_95 + 3 x_96
   + 3 x_97 + 5 x_98 + 4 x_99 + [ 30 x_0 ^2 + 58 x_1 ^2 + 72.5 x_2 ^2
   + 45 x_3 ^2 + 27 x_4 ^2 + 25 x_5 ^2 + 30 x_6 ^2 + 10 x_7 ^2 + 10 x_8 ^2
   + 45 x_9 ^2 + 67.5 x_10 ^2 + 20 x_11 ^2 + 34 x_12 ^2 + 24 x_13 ^2
   + 12 x_14 ^2 + 5.5 x_15 ^2 + 65 x_16 ^2 + 23 x_17 ^2 + 67.5 x_18 ^2
   + 42.5 x_19 ^2 + 16.5 x_20 ^2 + 6 x_21 ^2 + 5 x_22 ^2 + 56 x_23 ^2
   + 16 x_24 ^2 + 16 x_25 ^2 + 6.5 x_26 ^2 + 35 x_27 ^2 + 58 x_28 ^2
   + 56 x_29 ^2 + 40 x_30 ^2 + 48 x_31 ^2 + 62.5 x_32 ^2 + 54 x_33 ^2
   + 5.5 x_34 ^2 + 38 x_35 ^2 + 58 x_36 ^2 + 27 x_37 ^2 + 42 x_38 ^2
   + 25 x_39 ^2 + 6.5 x_40 ^2 + 28 x_41 ^2 + 15 x_42 ^2 + 14.5 x_43 ^2
   + 50 x_44 ^2 + 15 x_45 ^2 + 45 x_46 ^2 + 28 x_47 ^2 + 28.5 x_48 ^2
   + 52 x_49 ^2 + 13 x_50 ^2 + 30 x_51 ^2 + 15 x_52 ^2 + 6.5 x_53 ^2
   + 36 x_54 ^2 + 19 x_55 ^2 + 50 x_56 ^2 + 32 x_57 ^2 + 22 x_58 ^2
   + 31.5 x_59 ^2 + 12 x_60 ^2 + 67.5 x_61 ^2 + 17 x_62 ^2 + 34 x_63 ^2
   + 16 x_64 ^2 + 30 x_65 ^2 + 28.5 x_66 ^2 + 55 x_67 ^2 + 18 x_68 ^2
   + 27.5 x_69 ^2 + 24 x_70 ^2 + 57.5 x_71 ^2 + 25 x_72 ^2 + 21 x_73 ^2
   + 45 x_74 ^2 + 24 x_75 ^2 + 17 x_76 ^2 + 34.5 x_77 ^2 + 27 x_78 ^2
   + 37.5 x_79 ^2 + 25.5 x_80 ^2 + 37.5 x_81 ^2 + 50 x_82 ^2 + 9.5 x_83 ^2
   + 72.5 x_84 ^2 + 28.5 x_85 ^2 + 10.5 x_86 ^2 + 6.5 x_87 ^2
   + 25.5 x_88 ^2 + 56 x_89 ^2 + 18 x_90 ^2 + 22 x_91 ^2 + 19.5 x_92 ^2
   + 70 x_93 ^2 + 27 x_94 ^2 + 24 x_95 ^2 + 30 x_96 ^2 + 30 x_97 ^2
   + 52.5 x_98 ^2 + 46 x_99 ^2 ] <= 96
 c1_3: 5 x_0 + 3 x_1 + 5 x_2 + 3 x_3 + 2 x_4 + 5 x_5 + x_6 + 2 x_7 + x_8
   + 3 x_9 + x_10 + 4 x_11 + 3 x_12 + x_13 + 3 x_14 + 4 x_15 + x_16 + x_17
   + 2 x_18 + x_19 + x_20 + 3 x_21 + 4 x_22 + 5 x_23 + 4 x_24 + 4 x_25
   + x_26 + 5 x_27 + 5 x_28 + 4 x_29 + 3 x_30 + 5 x_31 + 5 x_32 + 4 x_33
   + 2 x_34 + 5 x_35 + 4 x_36 + 2 x_37 + 4 x_38 + 4 x_39 + 3 x_40 + x_41
   + 2 x_42 + x_43 + 2 x_44 + 2 x_45 + 5 x_46 + 3 x_47 + 3 x_48 + 4 x_49
   + x_50 + 4 x_51 + 3 x_52 + 4 x_53 + 3 x_54 + 3 x_55 + 2 x_56 + 4 x_57
   + 2 x_58 + 4 x_59 + 3 x_60 + 3 x_61 + 5 x_62 + 2 x_63 + x_64 + 4 x_65
   + x_66 + 5 x_67 + 3 x_68 + 2 x_69 + x_70 + 2 x_71 + 3 x_72 + 2 x_73
   + 2 x_74 + 4 x_75 + x_76 + 5 x_77 + 2 x_78 + 2 x_79 + 5 x_80 + x_81
   + 3 x_82 + 4 x_83 + 5 x_84 + 2 x_85 + 3 x_86 + 4 x_87 + 5 x_88 + 2 x_89
   + x_90 + 5 x_91 + 2 x_92 + 3 x_93 + 5 x_94 + 4 x_95 + x_96 + 5 x_97
   + 5 x_98 + x_99 + [ 60 x_0 ^2 + 22.5 x_1 ^2 + 50 x_2 ^2 + 25.5 x_3 ^2
   + 27 x_4 ^2 + 37.5 x_5 ^2 + 8 x_6 ^2 + 21 x_7 ^2 + 10.5 x_8 ^2
   + 40.5 x_9 ^2 + 14 x_10 ^2 + 30 x_11 ^2 + 40.5 x_12 ^2 + 9 x_13 ^2
   + 40.5 x_14 ^2 + 40 x_15 ^2 + 8.5 x_16 ^2 + 10.5 x_17 ^2 + 24 x_18 ^2
   + 5 x_19 ^2 + 5.5 x_20 ^2 + 16.5 x_21 ^2 + 28 x_22 ^2 + 55 x_23 ^2
   + 36 x_24 ^2 + 56 x_25 ^2 + 11 x_26 ^2 + 72.5 x_27 ^2 + 32.5 x_28 ^2
   + 40 x_29 ^2 + 25.5 x_30 ^2 + 75 x_31 ^2 + 60 x_32 ^2 + 36 x_33 ^2
   + 24 x_34 ^2 + 32.5 x_35 ^2 + 26 x_36 ^2 + 27 x_37 ^2 + 44 x_38 ^2
   + 46 x_39 ^2 + 25.5 x_40 ^2 + 12.5 x_41 ^2 + 24 x_42 ^2 + 8.5 x_43 ^2
   + 29 x_44 ^2 + 20 x_45 ^2 + 57.5 x_46 ^2 + 42 x_47 ^2 + 16.5 x_48 ^2
   + 42 x_49 ^2 + 14 x_50 ^2 + 48 x_51 ^2 + 22.5 x_52 ^2 + 36 x_53 ^2
   + 42 x_54 ^2 + 18 x_55 ^2 + 21 x_56 ^2 + 44 x_57 ^2 + 21 x_58 ^2
   + 36 x_59 ^2 + 21 x_60 ^2 + 40.5 x_61 ^2 + 55 x_62 ^2 + 27 x_63 ^2
   + 10 x_64 ^2 + 52 x_65 ^2 + 10 x_66 ^2 + 52.5 x_67 ^2 + 18 x_68 ^2
   + 20 x_69 ^2 + 11 x_70 ^2 + 27 x_71 ^2 + 25.5 x_72 ^2 + 26 x_73 ^2
   + 20 x_74 ^2 + 24 x_75 ^2 + 12.5 x_76 ^2 + 52.5 x_77 ^2 + 24 x_78 ^2
   + 29 x_79 ^2 + 75 x_80 ^2 + 9.5 x_81 ^2 + 19.5 x_82 ^2 + 52 x_83 ^2
   + 25 x_84 ^2 + 23 x_85 ^2 + 24 x_86 ^2 + 28 x_87 ^2 + 32.5 x_88 ^2
   + 29 x_89 ^2 + 13.5 x_90 ^2 + 65 x_91 ^2 + 17 x_92 ^2 + 31.5 x_93 ^2
   + 30 x_94 ^2 + 36 x_95 ^2 + 9 x_96 ^2 + 40 x_97 ^2 + 75 x_98 ^2
   + 5.5 x_99 ^2 ] <= 91
 c1_4: 3 x_0 + 4 x_1 + 2 x_2 + 3 x_3 + 2 x_4 + 4 x_5 + 3 x_6 + 5 x_7
   + 3 x_8 + 2 x_9 + 5 x_10 + x_11 + 3 x_12 + 3 x_13 + 5 x_14 + 3 x_15
   + 5 x_16 + x_17 + 3 x_18 + 2 x_19 + 3 x_20 + 5 x_21 + 5 x_22 + 2 x_23
   + 2 x_24 + 5 x_25 + 5 x_26 + 3 x_27 + 5 x_28 + 2 x_29 + 3 x_30 + 5 x_31
   + x_32 + 2 x_33 + x_34 + 3 x_35 + 2 x_36 + 3 x_37 + 4 x_38 + 2 x_39
   + 3 x_40 + x_41 + 3 x_42 + 5 x_43 + 5 x_44 + x_45 + 3 x_46 + 2 x_47
   + x_48 + 3 x_49 + 4 x_50 + 5 x_51 + x_52 + 3 x_53 + 4 x_54 + 5 x_55
   + 4 x_56 + x_57 + 3 x_58 + 4 x_59 + 4 x_60 + 4 x_61 + 2 x_62 + 4 x_63
   + 3 x_64 + 3 x_65 + 3 x_66 + 5 x_67 + 4 x_68 + x_69 + 5 x_70 + 2 x_71
   + 3 x_72 + 2 x_73 + 5 x_74 + 2 x_75 + 5 x_76 + 2 x_77 + 3 x_78 + 4 x_79
   + 3 x_80 + 3 x_81 + 3 x_82 + 4 x_83 + 3 x_84 + 5 x_85 + 2 x_86 + 4 x_87
   + x_88 + 5 x_89 + 4 x_90 + 2 x_91 + 4 x_92 + 5 x_93 + 5 x_94 + x_95
   + 3 x_96 + 2 x_97 + 5 x_98 + 5 x_99 + [ 21 x_0 ^2 + 58 x_1 ^2
   + 21 x_2 ^2 + 22.5 x_3 ^2 + 17 x_4 ^2 + 40 x_5 ^2 + 28.5 x_6 ^2
   + 72.5 x_7 ^2 + 43.5 x_8 ^2 + 28 x_9 ^2 + 72.5 x_10 ^2 + 7.5 x_11 ^2
   + 34.5 x_12 ^2 + 37.5 x_13 ^2 + 72.5 x_14 ^2 + 33 x_15 ^2 + 52.5 x_16 ^2
   + 5 x_17 ^2 + 36 x_18 ^2 + 17 x_19 ^2 + 15 x_20 ^2 + 27.5 x_21 ^2
   + 62.5 x_22 ^2 + 23 x_23 ^2 + 21 x_24 ^2 + 62.5 x_25 ^2 + 35 x_26 ^2
   + 30 x_27 ^2 + 42.5 x_28 ^2 + 20 x_29 ^2 + 31.5 x_30 ^2 + 25 x_31 ^2
   + 13.5 x_32 ^2 + 22 x_33 ^2 + 10.5 x_34 ^2 + 37.5 x_35 ^2 + 30 x_36 ^2
   + 18 x_37 ^2 + 24 x_38 ^2 + 20 x_39 ^2 + 21 x_40 ^2 + 7 x_41 ^2
   + 43.5 x_42 ^2 + 55 x_43 ^2 + 67.5 x_44 ^2 + 13 x_45 ^2 + 37.5 x_46 ^2
   + 16 x_47 ^2 + 8 x_48 ^2 + 39 x_49 ^2 + 38 x_50 ^2 + 57.5 x_51 ^2
   + 9.5 x_52 ^2 + 18 x_53 ^2 + 38 x_54 ^2 + 60 x_55 ^2 + 28 x_56 ^2
   + 15 x_57 ^2 + 15 x_58 ^2 + 40 x_59 ^2 + 46 x_60 ^2 + 42 x_61 ^2
   + 12 x_62 ^2 + 30 x_63 ^2 + 25.5 x_64 ^2 + 40.5 x_65 ^2 + 19.5 x_66 ^2
   + 62.5 x_67 ^2 + 24 x_68 ^2 + 13 x_69 ^2 + 72.5 x_70 ^2 + 28 x_71 ^2
   + 42 x_72 ^2 + 20 x_73 ^2 + 70 x_74 ^2 + 13 x_75 ^2 + 67.5 x_76 ^2
   + 17 x_77 ^2 + 30 x_78 ^2 + 48 x_79 ^2 + 22.5 x_80 ^2 + 31.5 x_81 ^2
   + 43.5 x_82 ^2 + 40 x_83 ^2 + 30 x_84 ^2 + 47.5 x_85 ^2 + 13 x_86 ^2
   + 42 x_87 ^2 + 5 x_88 ^2 + 40 x_89 ^2 + 58 x_90 ^2 + 11 x_91 ^2
   + 44 x_92 ^2 + 47.5 x_93 ^2 + 72.5 x_94 ^2 + 10.5 x_95 ^2 + 19.5 x_96 ^2
   + 19 x_97 ^2 + 45 x_98 ^2 + 75 x_99 ^2 ] <= 100
 c1_5: 2 x_0 + 5 x_1 + x_2 + x_3 + 3 x_4 + 4 x_5 + 2 x_6 + x_7 + x_8 + x_9
   + x_10 + 3 x_11 + 5 x_12 + x_13 + 3 x_14 + 4 x_15 + 5 x_16 + 4 x_17
   + 5 x_18 + 5 x_19 + 5 x_20 + 3 x_21 + 2 x_22 + 4 x_23 + 5 x_24 + 5 x_25
   + x_26 + x_27 + 3 x_28 + 5 x_29 + 4 x_30 + 4 x_31 + x_32 + x_33 + 2 x_34
   + 5 x_35 + 5 x_36 + x_37 + x_38 + x_39 + 2 x_40 + 2 x_41 + 2 x_42
   + 5 x_43 + 2 x_44 + 5 x_45 + x_46 + 5 x_47 + 4 x_48 + 3 x_49 + x_50
   + 4 x_51 + 3 x_52 + 4 x_53 + 3 x_54 + 3 x_55 + 2 x_56 + 4 x_57 + 4 x_58
   + x_59 + 5 x_60 + 4 x_61 + 4 x_62 + x_63 + x_64 + 2 x_65 + 5 x_66
   + 5 x_67 + 2 x_68 + x_69 + x_70 + x_71 + 4 x_72 + 5 x_73 + 5 x_74
   + 3 x_75 + 3 x_76 + 4 x_77 + 4 x_78 + 5 x_79 + 3 x_80 + 2 x_81 + x_82
   + 5 x_83 + 2 x_84 + 4 x_85 + x_86 + 4 x_87 + 3 x_88 + 2 x_89 + x_90
   + x_91 + 4 x_92 + 5 x_93 + 2 x_94 + x_95 + x_96 + 3 x_97 + 2 x_98
   + 2 x_99 + [ 18 x_0 ^2 + 47.5 x_1 ^2 + 11.5 x_2 ^2 + 12.5 x_3 ^2
   + 37.5 x_4 ^2 + 28 x_5 ^2 + 11 x_6 ^2 + 7.5 x_7 ^2 + 10 x_8 ^2
   + 5 x_9 ^2 + 14.5 x_10 ^2 + 24 x_11 ^2 + 32.5 x_12 ^2 + 13 x_13 ^2
   + 19.5 x_14 ^2 + 32 x_15 ^2 + 47.5 x_16 ^2 + 30 x_17 ^2 + 52.5 x_18 ^2
   + 67.5 x_19 ^2 + 52.5 x_20 ^2 + 19.5 x_21 ^2 + 30 x_22 ^2 + 48 x_23 ^2
   + 60 x_24 ^2 + 65 x_25 ^2 + 6.5 x_26 ^2 + 8 x_27 ^2 + 31.5 x_28 ^2
   + 40 x_29 ^2 + 60 x_30 ^2 + 24 x_31 ^2 + 5 x_32 ^2 + 5.5 x_33 ^2
   + 14 x_34 ^2 + 57.5 x_35 ^2 + 45 x_36 ^2 + 8.5 x_37 ^2 + 13.5 x_38 ^2
   + 15 x_39 ^2 + 18 x_40 ^2 + 15 x_41 ^2 + 11 x_42 ^2 + 70 x_43 ^2
   + 20 x_44 ^2 + 52.5 x_45 ^2 + 8.5 x_46 ^2 + 50 x_47 ^2 + 34 x_48 ^2
   + 33 x_49 ^2 + 14.5 x_50 ^2 + 46 x_51 ^2 + 30 x_52 ^2 + 26 x_53 ^2
   + 45 x_54 ^2 + 45 x_55 ^2 + 27 x_56 ^2 + 58 x_57 ^2 + 30 x_58 ^2
   + 5.5 x_59 ^2 + 55 x_60 ^2 + 34 x_61 ^2 + 30 x_62 ^2 + 15 x_63 ^2
   + 6 x_64 ^2 + 26 x_65 ^2 + 57.5 x_66 ^2 + 45 x_67 ^2 + 17 x_68 ^2
   + 5.5 x_69 ^2 + 5.5 x_70 ^2 + 5.5 x_71 ^2 + 38 x_72 ^2 + 35 x_73 ^2
   + 40 x_74 ^2 + 16.5 x_75 ^2 + 42 x_76 ^2 + 60 x_77 ^2 + 40 x_78 ^2
   + 62.5 x_79 ^2 + 19.5 x_80 ^2 + 28 x_81 ^2 + 8 x_82 ^2 + 75 x_83 ^2
   + 10 x_84 ^2 + 48 x_85 ^2 + 6.5 x_86 ^2 + 30 x_87 ^2 + 25.5 x_88 ^2
   + 26 x_89 ^2 + 10.5 x_90 ^2 + 10.5 x_91 ^2 + 44 x_92 ^2 + 30 x_93 ^2
   + 15 x_94 ^2 + 13.5 x_95 ^2 + 12 x_96 ^2 + 22.5 x_97 ^2 + 24 x_98 ^2
   + 27 x_99 ^2 ] <= 86
 c1_6: x_0 + 2 x_1 + 2 x_2 + x_3 + x_4 + 4 x_5 + 4 x_6 + 4 x_7 + 4 x_8
   + 2 x_9 + 3 x_10 + x_11 + x_12 + 5 x_13 + 3 x_14 + 3 x_15 + x_16
   + 3 x_17 + 5 x_18 + 2 x_19 + 4 x_20 + 5 x_21 + 4 x_22 + x_23 + 2 x_24
   + 5 x_25 + 3 x_26 + 2 x_27 + 5 x_28 + 2 x_29 + x_30 + 3 x_31 + 4 x_32
   + 4 x_33 + 4 x_34 + 5 x_35 + 2 x_36 + 3 x_37 + 3 x_38 + 5 x_39 + 3 x_40
   + 3 x_41 + 2 x_42 + 2 x_43 + 2 x_44 + 5 x_45 + 5 x_46 + 5 x_47 + 3 x_48
   + 4 x_49 + 3 x_50 + 2 x_51 + 4 x_52 + x_53 + 4 x_54 + 2 x_55 + 2 x_56
   + 2 x_57 + 2 x_58 + x_59 + 4 x_60 + x_61 + 3 x_62 + 4 x_63 + 3 x_64
   + 3 x_65 + 3 x_66 + 2 x_67 + 4 x_68 + 5 x_69 + 4 x_70 + 2 x_71 + 4 x_72
   + 2 x_73 + 4 x_74 + 4 x_75 + 3 x_76 + x_77 + 4 x_78 + 5 x_79 + x_80
   + 5 x_81 + 4 x_82 + 2 x_83 + 4 x_84 + 3 x_85 + 2 x_86 + 5 x_87 + 4 x_88
   + 4 x_89 + 2 x_90 + 4 x_91 + x_92 + 5 x_93 + 4 x_94 + 4 x_95 + 2 x_96
   + 3 x_97 + 5 x_98 + x_99 + [ 9.5 x_0 ^2 + 24 x_1 ^2 + 22 x_2 ^2
   + 6 x_3 ^2 + 6.5 x_4 ^2 + 20 x_5 ^2 + 44 x_6 ^2 + 44 x_7 ^2 + 44 x_8 ^2
   + 29 x_9 ^2 + 15 x_10 ^2 + 13.5 x_11 ^2 + 6 x_12 ^2 + 70 x_13 ^2
   + 43.5 x_14 ^2 + 21 x_15 ^2 + 7.5 x_16 ^2 + 40.5 x_17 ^2 + 40 x_18 ^2
   + 25 x_19 ^2 + 22 x_20 ^2 + 62.5 x_21 ^2 + 38 x_22 ^2 + 11.5 x_23 ^2
   + 27 x_24 ^2 + 55 x_25 ^2 + 34.5 x_26 ^2 + 28 x_27 ^2 + 62.5 x_28 ^2
   + 12 x_29 ^2 + 10.5 x_30 ^2 + 28.5 x_31 ^2 + 56 x_32 ^2 + 36 x_33 ^2
   + 58 x_34 ^2 + 62.5 x_35 ^2 + 14 x_36 ^2 + 30 x_37 ^2 + 40.5 x_38 ^2
   + 40 x_39 ^2 + 33 x_40 ^2 + 27 x_41 ^2 + 18 x_42 ^2 + 18 x_43 ^2
   + 22 x_44 ^2 + 37.5 x_45 ^2 + 70 x_46 ^2 + 30 x_47 ^2 + 22.5 x_48 ^2
   + 30 x_49 ^2 + 21 x_50 ^2 + 20 x_51 ^2 + 54 x_52 ^2 + 10.5 x_53 ^2
   + 54 x_54 ^2 + 18 x_55 ^2 + 13 x_56 ^2 + 26 x_57 ^2 + 21 x_58 ^2
   + 14 x_59 ^2 + 50 x_60 ^2 + 6.5 x_61 ^2 + 21 x_62 ^2 + 34 x_63 ^2
   + 19.5 x_64 ^2 + 31.5 x_65 ^2 + 37.5 x_66 ^2 + 23 x_67 ^2 + 50 x_68 ^2
   + 27.5 x_69 ^2 + 42 x_70 ^2 + 15 x_71 ^2 + 28 x_72 ^2 + 10 x_73 ^2
   + 30 x_74 ^2 + 42 x_75 ^2 + 34.5 x_76 ^2 + 8.5 x_77 ^2 + 36 x_78 ^2
   + 52.5 x_79 ^2 + 5.5 x_80 ^2 + 60 x_81 ^2 + 32 x_82 ^2 + 21 x_83 ^2
   + 40 x_84 ^2 + 15 x_85 ^2 + 28 x_86 ^2 + 45 x_87 ^2 + 32 x_88 ^2
   + 42 x_89 ^2 + 13 x_90 ^2 + 60 x_91 ^2 + 7 x_92 ^2 + 35 x_93 ^2
   + 54 x_94 ^2 + 60 x_95 ^2 + 25 x_96 ^2 + 43.5 x_97 ^2 + 45 x_98 ^2
   + 9.5 x_99 ^2 ] <= 92
 c1_7: x_0 + 2 x_1 + x_2 + 3 x_3 + 4 x_4 + 5 x_5 + 4 x_6 + 2 x_7 + 4 x_8
   + 3 x_9 + x_10 + 5 x_11 + 3 x_12 + 2 x_13 + 5 x_14 + 4 x_15 + 2 x_16
   + 4 x_17 + 3 x_18 + 3 x_19 + 2 x_20 + x_21 + 2 x_22 + x_23 + 2 x_24
   + 2 x_25 + 5 x_26 + x_27 + x_28 + 3 x_29 + 4 x_30 + 3 x_31 + x_32
   + 5 x_33 + x_34 + 4 x_35 + 4 x_36 + 2 x_37 + 5 x_38 + 3 x_39 + 5 x_40
   + 2 x_41 + x_42 + 4 x_43 + x_44 + x_45 + 2 x_46 + 3 x_47 + x_48 + 4 x_49
   + 4 x_50 + 3 x_51 + 3 x_52 + 2 x_53 + 5 x_54 + 4 x_55 + x_56 + 2 x_57
   + 3 x_58 + x_59 + 5 x_60 + 3 x_61 + 5 x_62 + 5 x_63 + 4 x_64 + 4 x_65
   + 5 x_66 + 4 x_67 + 3 x_68 + 5 x_69 + 5 x_70 + 2 x_71 + 2 x_72 + 2 x_73
   + 2 x_74 + x_75 + 2 x_76 + 3 x_77 + x_78 + 3 x_79 + 2 x_80 + 5 x_81
   + x_82 + 5 x_83 + 3 x_84 + 3 x_85 + x_86 + 3 x_87 + x_88 + 3 x_89
   + 5 x_90 + 4 x_91 + 2 x_92 + 2 x_93 + 4 x_94 + 4 x_95 + x_96 + 3 x_97
   + 5 x_98 + 2 x_99 + [ 14 x_0 ^2 + 27 x_1 ^2 + 8.5 x_2 ^2 + 43.5 x_3 ^2
   + 26 x_4 ^2 + 47.5 x_5 ^2 + 50 x_6 ^2 + 26 x_7 ^2 + 34 x_8 ^2
   + 19.5 x_9 ^2 + 8.5 x_10 ^2 + 45 x_11 ^2 + 22.5 x_12 ^2 + 15 x_13 ^2
   + 27.5 x_14 ^2 + 48 x_15 ^2 + 16 x_16 ^2 + 54 x_17 ^2 + 27 x_18 ^2
   + 16.5 x_19 ^2 + 12 x_20 ^2 + 13 x_21 ^2 + 12 x_22 ^2 + 10.5 x_23 ^2
   + 20 x_24 ^2 + 30 x_25 ^2 + 35 x_26 ^2 + 12 x_27 ^2 + 15 x_28 ^2
   + 25.5 x_29 ^2 + 30 x_30 ^2 + 36 x_31 ^2 + 14 x_32 ^2 + 60 x_33 ^2
   + 12.5 x_34 ^2 + 58 x_35 ^2 + 20 x_36 ^2 + 16 x_37 ^2 + 47.5 x_38 ^2
   + 16.5 x_39 ^2 + 52.5 x_40 ^2 + 16 x_41 ^2 + 9 x_42 ^2 + 28 x_43 ^2
   + 11 x_44 ^2 + 6.5 x_45 ^2 + 15 x_46 ^2 + 33 x_47 ^2 + 14 x_48 ^2
   + 20 x_49 ^2 + 22 x_50 ^2 + 45 x_51 ^2 + 34.5 x_52 ^2 + 26 x_53 ^2
   + 52.5 x_54 ^2 + 48 x_55 ^2 + 11.5 x_56 ^2 + 18 x_57 ^2 + 19.5 x_58 ^2
   + 9.5 x_59 ^2 + 67.5 x_60 ^2 + 22.5 x_61 ^2 + 52.5 x_62 ^2
   + 57.5 x_63 ^2 + 38 x_64 ^2 + 46 x_65 ^2 + 57.5 x_66 ^2 + 52 x_67 ^2
   + 40.5 x_68 ^2 + 57.5 x_69 ^2 + 42.5 x_70 ^2 + 27 x_71 ^2 + 14 x_72 ^2
   + 21 x_73 ^2 + 25 x_74 ^2 + 9 x_75 ^2 + 16 x_76 ^2 + 25.5 x_77 ^2
   + 10.5 x_78 ^2 + 22.5 x_79 ^2 + 27 x_80 ^2 + 75 x_81 ^2 + 9.5 x_82 ^2
   + 25 x_83 ^2 + 24 x_84 ^2 + 43.5 x_85 ^2 + 8.5 x_86 ^2 + 42 x_87 ^2
   + 8 x_88 ^2 + 19.5 x_89 ^2 + 37.5 x_90 ^2 + 38 x_91 ^2 + 15 x_92 ^2
   + 26 x_93 ^2 + 32 x_94 ^2 + 42 x_95 ^2 + 13.5 x_96 ^2 + 45 x_97 ^2
   + 42.5 x_98 ^2 + 28 x_99 ^2 ] <= 86
 c1_8: 4 x_0 + 4 x_1 + 4 x_2 + 3 x_3 + 5 x_4 + 4 x_5 + 5 x_6 + 2 x_7 + x_8
   + x_9 + 2 x_10 + x_11 + 4 x_12 + 3 x_13 + x_14 + 2 x_15 + 3 x_16
   + 2 x_17 + 4 x_18 + 2 x_19 + 4 x_20 + x_21 + 3 x_22 + 5 x_23 + 3 x_24
   + 5 x_25 + x_26 + 2 x_27 + 4 x_28 + 4 x_29 + 4 x_30 + x_31 + x_32
   + 5 x_33 + 3 x_34 + 3 x_35 + 2 x_36 + 5 x_37 + x_38 + x_39 + 4 x_40
   + 5 x_41 + 5 x_42 + x_43 + 5 x_44 + 4 x_45 + 4 x_46 + x_47 + x_48
   + 5 x_49 + 5 x_50 + 3 x_51 + 5 x_52 + 5 x_53 + 2 x_54 + x_55 + 5 x_56
   + 2 x_57 + 5 x_58 + x_59 + 3 x_60 + 4 x_61 + x_62 + x_63 + 2 x_64
   + 2 x_65 + 2 x_66 + 3 x_67 + 2 x_68 + x_69 + 2 x_70 + 5 x_71 + 5 x_72
   + 4 x_73 + 5 x_74 + 4 x_75 + 5 x_76 + 3 x_77 + 4 x_78 + 5 x_79 + 4 x_80
   + 4 x_81 + 5 x_82 + x_83 + 2 x_84 + 4 x_85 + 4 x_86 + 4 x_87 + 2 x_88
   + 4 x_89 + 4 x_90 + 5 x_91 + x_92 + 3 x_93 + 3 x_94 + 2 x_95 + 3 x_96
   + x_97 + 3 x_98 + x_99 + [ 40 x_0 ^2 + 32 x_1 ^2 + 28 x_2 ^2
   + 25.5 x_3 ^2 + 62.5 x_4 ^2 + 46 x_5 ^2 + 32.5 x_6 ^2 + 16 x_7 ^2
   + 10.5 x_8 ^2 + 8.5 x_9 ^2 + 21 x_10 ^2 + 13 x_11 ^2 + 28 x_12 ^2
   + 42 x_13 ^2 + 10.5 x_14 ^2 + 29 x_15 ^2 + 18 x_16 ^2 + 26 x_17 ^2
   + 38 x_18 ^2 + 15 x_19 ^2 + 36 x_20 ^2 + 13.5 x_21 ^2 + 39 x_22 ^2
   + 55 x_23 ^2 + 22.5 x_24 ^2 + 70 x_25 ^2 + 11 x_26 ^2 + 11 x_27 ^2
   + 40 x_28 ^2 + 26 x_29 ^2 + 52 x_30 ^2 + 8 x_31 ^2 + 5 x_32 ^2
   + 42.5 x_33 ^2 + 19.5 x_34 ^2 + 45 x_35 ^2 + 14 x_36 ^2 + 55 x_37 ^2
   + 13.5 x_38 ^2 + 9 x_39 ^2 + 50 x_40 ^2 + 40 x_41 ^2 + 50 x_42 ^2
   + 5.5 x_43 ^2 + 35 x_44 ^2 + 28 x_45 ^2 + 46 x_46 ^2 + 11.5 x_47 ^2
   + 9.5 x_48 ^2 + 45 x_49 ^2 + 40 x_50 ^2 + 33 x_51 ^2 + 30 x_52 ^2
   + 32.5 x_53 ^2 + 18 x_54 ^2 + 13 x_55 ^2 + 37.5 x_56 ^2 + 18 x_57 ^2
   + 37.5 x_58 ^2 + 7 x_59 ^2 + 31.5 x_60 ^2 + 24 x_61 ^2 + 8 x_62 ^2
   + 8 x_63 ^2 + 22 x_64 ^2 + 27 x_65 ^2 + 26 x_66 ^2 + 22.5 x_67 ^2
   + 10 x_68 ^2 + 10 x_69 ^2 + 27 x_70 ^2 + 55 x_71 ^2 + 35 x_72 ^2
   + 40 x_73 ^2 + 27.5 x_74 ^2 + 38 x_75 ^2 + 65 x_76 ^2 + 34.5 x_77 ^2
   + 58 x_78 ^2 + 47.5 x_79 ^2 + 44 x_80 ^2 + 44 x_81 ^2 + 72.5 x_82 ^2
   + 10.5 x_83 ^2 + 26 x_84 ^2 + 56 x_85 ^2 + 30 x_86 ^2 + 48 x_87 ^2
   + 14 x_88 ^2 + 56 x_89 ^2 + 28 x_90 ^2 + 70 x_91 ^2 + 12.5 x_92 ^2
   + 15 x_93 ^2 + 40.5 x_94 ^2 + 15 x_95 ^2 + 31.5 x_96 ^2 + 11 x_97 ^2
   + 22.5 x_98 ^2 + 9 x_99 ^2 ] <= 89
 c1_9: x_0 + 5 x_1 + 3 x_2 + 4 x_3 + 2 x_4 + 4 x_5 + 3 x_6 + 3 x_7 + 4 x_8
   + 5 x_9 + 3 x_10 + 5 x_11 + 2 x_12 + 3 x_13 + 4 x_14 + 5 x_15 + 2 x_16
   + x_17 + 2 x_18 + 5 x_19 + 3 x_20 + 3 x_21 + x_22 + 5 x_23 + 3 x_24
   + 3 x_25 + 5 x_26 + 2 x_27 + 4 x_28 + 2 x_29 + 5 x_30 + 2 x_31 + 3 x_32
   + 5 x_33 + 3 x_34 + 3 x_35 + 3 x_36 + 2 x_37 + 4 x_38 + x_39 + 4 x_40
   + x_41 + 5 x_42 + 4 x_43 + x_44 + 3 x_45 + 5 x_46 + 4 x_47 + 2 x_48
   + 5 x_49 + 3 x_50 + 3 x_51 + 3 x_52 + x_53 + 4 x_54 + 5 x_55 + 4 x_56
   + 4 x_57 + x_58 + x_59 + 3 x_60 + 4 x_61 + x_62 + 3 x_63 + 5 x_64 + x_65
   + x_66 + 5 x_67 + 5 x_68 + x_69 + 5 x_70 + 5 x_71 + 3 x_72 + x_73
   + 5 x_74 + 3 x_75 + x_76 + x_77 + x_78 + 5 x_79 + 5 x_80 + 4 x_81
   + 3 x_82 + 4 x_83 + 3 x_84 + 2 x_85 + 4 x_86 + x_87 + 2 x_88 + 2 x_89
   + 2 x_90 + 3 x_91 + 5 x_92 + 5 x_93 + 2 x_94 + 5 x_95 + x_96 + 5 x_97
   + 3 x_98 + 2 x_99 + [ 12 x_0 ^2 + 65 x_1 ^2 + 39 x_2 ^2 + 40 x_3 ^2
   + 15 x_4 ^2 + 50 x_5 ^2 + 19.5 x_6 ^2 + 24 x_7 ^2 + 52 x_8 ^2
   + 70 x_9 ^2 + 39 x_10 ^2 + 50 x_11 ^2 + 25 x_12 ^2 + 16.5 x_13 ^2
   + 40 x_14 ^2 + 55 x_15 ^2 + 29 x_16 ^2 + 6 x_17 ^2 + 29 x_18 ^2
   + 70 x_19 ^2 + 43.5 x_20 ^2 + 25.5 x_21 ^2 + 8.5 x_22 ^2 + 27.5 x_23 ^2
   + 33 x_24 ^2 + 45 x_25 ^2 + 55 x_26 ^2 + 17 x_27 ^2 + 44 x_28 ^2
   + 26 x_29 ^2 + 65 x_30 ^2 + 16 x_31 ^2 + 21 x_32 ^2 + 57.5 x_33 ^2
   + 45 x_34 ^2 + 33 x_35 ^2 + 16.5 x_36 ^2 + 28 x_37 ^2 + 32 x_38 ^2
   + 6 x_39 ^2 + 48 x_40 ^2 + 11.5 x_41 ^2 + 37.5 x_42 ^2 + 46 x_43 ^2
   + 10.5 x_44 ^2 + 22.5 x_45 ^2 + 67.5 x_46 ^2 + 44 x_47 ^2 + 30 x_48 ^2
   + 40 x_49 ^2 + 37.5 x_50 ^2 + 28.5 x_51 ^2 + 30 x_52 ^2 + 9 x_53 ^2
   + 52 x_54 ^2 + 37.5 x_55 ^2 + 32 x_56 ^2 + 52 x_57 ^2 + 8 x_58 ^2
   + 13 x_59 ^2 + 24 x_60 ^2 + 22 x_61 ^2 + 12.5 x_62 ^2 + 16.5 x_63 ^2
   + 60 x_64 ^2 + 5 x_65 ^2 + 7 x_66 ^2 + 75 x_67 ^2 + 75 x_68 ^2
   + 8.5 x_69 ^2 + 30 x_70 ^2 + 67.5 x_71 ^2 + 36 x_72 ^2 + 7 x_73 ^2
   + 47.5 x_74 ^2 + 27 x_75 ^2 + 15 x_76 ^2 + 15 x_77 ^2 + 13 x_78 ^2
   + 42.5 x_79 ^2 + 52.5 x_80 ^2 + 40 x_81 ^2 + 34.5 x_82 ^2 + 50 x_83 ^2
   + 28.5 x_84 ^2 + 15 x_85 ^2 + 24 x_86 ^2 + 8 x_87 ^2 + 19 x_88 ^2
   + 23 x_89 ^2 + 15 x_90 ^2 + 24 x_91 ^2 + 32.5 x_92 ^2 + 52.5 x_93 ^2
   + 20 x_94 ^2 + 52.5 x_95 ^2 + 12 x_96 ^2 + 72.5 x_97 ^2 + 31.5 x_98 ^2
   + 26 x_99 ^2 ] <= 98
Bounds
 x_0 <= 1
 x_1 <= 1
 x_2 <= 1
 x_3 <= 1
 x_4 <= 1
 x_5 <= 1
 x_6 <= 1
 x_7 <= 1
 x_8 <= 1
 x_9 <= 1
 x_10 <= 1
 x_11 <= 1
 x_12 <= 1
 x_13 <= 1
 x_14 <= 1
 x_15 <= 1
 x_16 <= 1
 x_17 <= 1
 x_18 <= 1
 x_19 <= 1
 x_20 <= 1
 x_21 <= 1
 x_22 <= 1
 x_23 <= 1
 x_24 <= 1
 x_25 <= 1
 x_26 <= 1
 x_27 <= 1
 x_28 <= 1
 x_29 <= 1
 x_30 <= 1
 x_31 <= 1
 x_32 <= 1
 x_33 <= 1
 x_34 <= 1
 x_35 <= 1
 x_36 <= 1
 x_37 <= 1
 x_38 <= 1
 x_39 <= 1
 x_40 <= 1
 x_41 <= 1
 x_42 <= 1
 x_43 <= 1
 x_44 <= 1
 x_45 <= 1
 x_46 <= 1
 x_47 <= 1
 x_48 <= 1
 x_49 <= 1
 x_50 <= 1
 x_51 <= 1
 x_52 <= 1
 x_53 <= 1
 x_54 <= 1
 x_55 <= 1
 x_56 <= 1
 x_57 <= 1
 x_58 <= 1
 x_59 <= 1
 x_60 <= 1
 x_61 <= 1
 x_62 <= 1
 x_63 <= 1
 x_64 <= 1
 x_65 <= 1
 x_66 <= 1
 x_67 <= 1
 x_68 <= 1
 x_69 <= 1
 x_70 <= 1
 x_71 <= 1
 x_72 <= 1
 x_73 <= 1
 x_74 <= 1
 x_75 <= 1
 x_76 <= 1
 x_77 <= 1
 x_78 <= 1
 x_79 <= 1
 x_80 <= 1
 x_81 <= 1
 x_82 <= 1
 x_83 <= 1
 x_84 <= 1
 x_85 <= 1
 x_86 <= 1
 x_87 <= 1
 x_88 <= 1
 x_89 <= 1
 x_90 <= 1
 x_91 <= 1
 x_92 <= 1
 x_93 <= 1
 x_94 <= 1
 x_95 <= 1
 x_96 <= 1
 x_97 <= 1
 x_98 <= 1
 x_99 <= 1
End
